p cnf 1413 2189
-2 26 -33 101 0
-2 26 -33 -101 0
-58 -71 93 102 0
-58 -71 93 -102 0
-15 17 -18 103 0
-15 17 -18 -103 0
34 -35 -49 104 0
-49 59 -104 105 0
59 -90 -92 -105 0
8 35 44 106 0
44 -56 -106 107 0
-56 -60 96 -107 0
29 -32 -77 108 0
29 -32 -77 -108 0
19 30 41 109 0
41 44 73 -109 0
-12 16 -27 -32 0
-14 -19 98 110 0
-14 -19 98 -110 0
37 38 -54 111 0
-54 58 -111 112 0
58 60 -112 113 0
60 81 -113 114 0
81 -88 -97 -114 0
-2 29 66 81 0
-1 -10 -47 115 0
-47 -72 -115 116 0
-72 83 -116 117 0
83 84 -99 -117 0
61 64 86 118 0
61 64 86 -118 0
-1 61 -82 119 0
-82 94 -95 -119 0
47 -53 -65 120 0
-65 -86 -120 121 0
-86 88 -121 122 0
88 89 -122 123 0
89 -91 -123 124 0
-91 93 -124 125 0
93 94 -96 -125 0
-39 60 -81 126 0
-39 60 -81 -126 0
11 22 -40 127 0
11 22 -40 -127 0
-24 32 33 128 0
33 52 -128 129 0
52 67 -129 130 0
67 -90 -99 -130 0
-3 38 -74 131 0
-3 38 -74 -131 0
-17 22 39 132 0
39 -67 85 -132 0
23 60 77 133 0
23 60 77 -133 0
-14 20 42 134 0
42 56 -134 135 0
56 -71 -135 136 0
-71 -87 -95 -136 0
71 -75 137 138 0
71 -75 137 -138 0
71 -75 -137 138 0
71 -75 -137 -138 0
-36 -43 139 140 0
-36 -43 139 -140 0
-36 -43 -139 140 0
-36 -43 -139 -140 0
-9 -14 61 141 0
61 75 -141 142 0
75 -86 97 -142 0
5 31 63 143 0
5 31 63 -143 0
44 51 60 144 0
60 62 -144 145 0
62 67 -145 146 0
67 78 -146 147 0
78 -92 -95 -147 0
-7 18 19 148 0
19 26 -148 149 0
26 -36 -149 150 0
-36 -63 -150 151 0
-63 71 80 -151 0
9 -14 25 152 0
25 -42 -152 153 0
-42 47 -153 154 0
47 -67 -98 -154 0
25 29 -58 -90 0
-11 30 -42 155 0
-42 67 -84 -155 0
-13 32 65 -98 0
10 20 34 156 0
34 -40 -156 157 0
-40 43 -157 158 0
43 61 -63 -158 0
19 48 159 160 0
19 48 159 -160 0
19 48 -159 160 0
19 48 -159 -160 0
-1 9 -11 161 0
-11 -61 -99 -161 0
81 82 -87 162 0
81 82 -87 -162 0
23 65 93 163 0
23 65 93 -163 0
-5 16 164 165 0
-5 16 164 -165 0
-5 16 -164 165 0
-5 16 -164 -165 0
-3 -8 -12 166 0
-12 25 -166 167 0
25 30 -167 168 0
30 -43 -168 169 0
-43 47 -169 170 0
47 -69 73 -170 0
-65 88 171 172 0
-65 88 171 -172 0
-65 88 -171 172 0
-65 88 -171 -172 0
8 -18 -29 173 0
-29 -66 -173 174 0
-66 90 -97 -174 0
7 9 27 175 0
27 63 -175 176 0
63 -66 73 -176 0
32 35 -62 177 0
-62 68 93 -177 0
-18 21 -31 82 0
5 6 37 178 0
5 6 37 -178 0
4 10 25 179 0
25 40 -179 180 0
40 47 -52 -180 0
-4 -64 181 182 0
-4 -64 181 -182 0
-4 -64 -181 182 0
-4 -64 -181 -182 0
1 10 -22 183 0
-22 -63 -183 184 0
-63 66 -87 -184 0
-7 -9 18 185 0
18 -24 -185 186 0
-24 -28 -186 187 0
-28 -77 96 -187 0
27 32 -47 188 0
-47 -73 -188 189 0
-73 84 86 -189 0
12 -47 -76 190 0
12 -47 -76 -190 0
1 57 85 191 0
1 57 85 -191 0
-24 -34 -57 192 0
-57 64 -70 -192 0
6 58 -62 193 0
6 58 -62 -193 0
9 23 24 194 0
24 -59 -194 195 0
-59 90 -195 196 0
90 93 -100 -196 0
-3 31 32 197 0
32 -39 -197 198 0
-39 -44 -50 -198 0
5 -18 25 199 0
25 -26 -199 200 0
-26 -63 -200 201 0
-63 72 -201 202 0
72 -75 -99 -202 0
-8 -40 -46 203 0
-46 -59 -203 204 0
-59 86 88 -204 0
25 32 -33 205 0
-33 71 -205 206 0
71 -81 97 -206 0
-14 19 -26 207 0
-26 -41 -207 208 0
-41 -45 -208 209 0
-45 -50 -80 -209 0
17 -43 -57 210 0
-57 -61 -210 211 0
-61 -65 -211 212 0
-65 75 -94 -212 0
28 35 -46 213 0
-46 -75 77 -213 0
5 -18 -45 214 0
-45 -48 61 -214 0
-10 57 -62 215 0
-62 69 70 -215 0
14 -24 44 216 0
44 46 -216 217 0
46 59 -217 218 0
59 60 -218 219 0
60 76 -219 220 0
76 80 -86 -220 0
39 52 55 221 0
55 57 -221 222 0
57 -71 -88 -222 0
-28 -51 -57 223 0
-28 -51 -57 -223 0
40 41 -47 224 0
-47 68 -87 -224 0
37 63 -76 225 0
-76 -86 -97 -225 0
-20 28 50 226 0
50 56 99 -226 0
-11 24 -65 227 0
-65 -72 99 -227 0
56 -69 -92 228 0
56 -69 -92 -228 0
-18 -30 54 229 0
54 55 -66 -229 0
28 -33 40 230 0
40 67 -230 231 0
67 -68 -231 232 0
-68 -79 -232 233 0
-79 -94 -97 -233 0
-5 8 -17 234 0
-17 -20 -234 235 0
-20 -56 -235 236 0
-56 -61 -236 237 0
-61 67 -237 238 0
67 68 96 -238 0
-14 18 76 239 0
-14 18 76 -239 0
-65 70 99 240 0
-65 70 99 -240 0
52 -74 83 241 0
83 -84 -87 -241 0
-14 -89 99 242 0
-14 -89 99 -242 0
22 -23 40 243 0
40 41 -243 244 0
41 52 -244 245 0
52 60 -245 246 0
60 -68 -75 -246 0
-36 40 -48 247 0
-48 51 -247 248 0
51 -52 -248 249 0
-52 86 98 -249 0
-9 -52 68 250 0
68 86 -92 -250 0
71 -93 -97 251 0
71 -93 -97 -251 0
33 -46 63 87 0
-29 -38 70 252 0
-29 -38 70 -252 0
-42 -44 50 98 0
6 7 -16 253 0
-16 -39 -253 254 0
-39 -45 80 -254 0
17 27 28 255 0
28 -31 -255 256 0
-31 -41 -256 257 0
-41 56 -67 -257 0
-9 12 -18 258 0
-18 21 -258 259 0
21 76 100 -259 0
-14 30 70 260 0
-14 30 70 -260 0
20 -27 36 261 0
36 -43 -261 262 0
-43 67 76 -262 0
-22 25 31 263 0
31 -38 -263 264 0
-38 -41 -264 265 0
-41 62 -265 266 0
62 -70 -87 -266 0
2 -7 -23 267 0
-23 26 -267 268 0
26 -29 -268 269 0
-29 -59 -269 270 0
-59 96 -100 -270 0
-4 15 -16 271 0
-16 -34 -271 272 0
-34 -74 -272 273 0
-74 77 -89 -273 0
22 61 73 -95 0
26 53 -81 83 0
-16 71 274 275 0
-16 71 274 -275 0
-16 71 -274 275 0
-16 71 -274 -275 0
-9 24 -61 -90 0
-8 28 -42 276 0
-42 -54 -276 277 0
-54 83 -89 -277 0
-22 -36 42 278 0
42 49 -278 279 0
49 76 -279 280 0
76 -80 -99 -280 0
8 -76 84 281 0
8 -76 84 -281 0
-70 83 282 283 0
-70 83 282 -283 0
-70 83 -282 283 0
-70 83 -282 -283 0
-21 37 52 284 0
52 -58 -284 285 0
-58 -68 75 -285 0
-1 -23 47 286 0
47 83 93 -286 0
-13 -24 -29 100 0
-7 -62 287 288 0
-7 -62 287 -288 0
-7 -62 -287 288 0
-7 -62 -287 -288 0
3 -16 -31 289 0
3 -16 -31 -289 0
-5 8 -18 290 0
-18 33 51 -290 0
-15 -27 -33 291 0
-33 56 -291 292 0
56 61 -292 293 0
61 77 -293 294 0
77 79 -87 -294 0
18 58 63 78 0
10 -12 -32 295 0
10 -12 -32 -295 0
18 -19 31 296 0
31 76 -96 -296 0
2 -24 27 297 0
27 29 -50 -297 0
7 -12 40 298 0
40 51 -298 299 0
51 -53 -299 300 0
-53 -57 -300 301 0
-57 84 100 -301 0
-24 28 -45 58 0
2 -12 -50 -85 0
-1 -10 16 302 0
16 -70 -82 -302 0
10 12 65 303 0
10 12 65 -303 0
20 33 -53 304 0
-53 -62 -304 305 0
-62 -69 -305 306 0
-69 73 -86 -306 0
-24 -35 -52 307 0
-52 55 -70 -307 0
-13 -45 -95 308 0
-13 -45 -95 -308 0
4 -46 66 309 0
66 -71 74 -309 0
-10 28 -38 310 0
-38 42 -310 311 0
42 45 -311 312 0
45 -47 -312 313 0
-47 -56 -313 314 0
-56 -82 -93 -314 0
31 36 43 315 0
43 -92 97 -315 0
37 75 316 317 0
37 75 316 -317 0
37 75 -316 317 0
37 75 -316 -317 0
-3 -40 50 318 0
50 68 -318 319 0
68 75 76 -319 0
19 27 30 320 0
30 37 -320 321 0
37 -70 -321 322 0
-70 73 -86 -322 0
1 -7 -24 323 0
-24 -26 -65 -323 0
10 -27 -32 324 0
-32 35 -324 325 0
35 49 -325 326 0
49 -60 82 -326 0
18 21 27 -43 0
-5 -34 -60 327 0
-60 75 -100 -327 0
25 -27 60 71 0
13 34 35 328 0
35 76 -90 -328 0
15 30 42 329 0
42 64 73 -329 0
29 -32 74 330 0
29 -32 74 -330 0
-14 -58 -62 331 0
-14 -58 -62 -331 0
-9 66 97 332 0
-9 66 97 -332 0
1 -5 -8 333 0
-8 12 -333 334 0
12 -48 -334 335 0
-48 70 -335 336 0
70 -93 -97 -336 0
11 35 38 337 0
38 41 -337 338 0
41 -44 -338 339 0
-44 -88 -339 340 0
-88 90 -91 -340 0
50 -61 -72 341 0
50 -61 -72 -341 0
1 5 51 342 0
51 69 -74 -342 0
6 10 22 343 0
22 -39 -343 344 0
-39 -78 -344 345 0
-78 83 -345 346 0
83 87 -99 -346 0
-23 -42 59 -84 0
-3 52 62 -71 0
48 52 -55 347 0
48 52 -55 -347 0
-3 -19 87 348 0
-3 -19 87 -348 0
52 -67 78 349 0
78 84 -349 350 0
84 87 89 -350 0
-26 -31 -38 351 0
-38 -57 -351 352 0
-57 -81 -352 353 0
-81 -86 -99 -353 0
-1 63 68 354 0
68 -71 -84 -354 0
52 -54 -57 -78 0
9 33 -43 90 0
37 45 355 356 0
37 45 355 -356 0
37 45 -355 356 0
37 45 -355 -356 0
83 84 -99 357 0
83 84 -99 -357 0
51 -60 81 97 0
42 -54 58 358 0
58 60 -358 359 0
60 -63 71 -359 0
-17 52 58 -95 0
19 -43 360 361 0
19 -43 360 -361 0
19 -43 -360 361 0
19 -43 -360 -361 0
-21 -31 42 362 0
42 43 -362 363 0
43 -84 -363 364 0
-84 -88 -92 -364 0
2 7 -12 365 0
-12 22 -365 366 0
22 -43 56 -366 0
39 73 -78 -95 0
12 59 -61 367 0
-61 -66 -367 368 0
-66 70 -368 369 0
70 76 -369 370 0
76 87 96 -370 0
13 30 -48 371 0
-48 -61 -371 372 0
-61 65 -372 373 0
65 77 -373 374 0
77 -80 -374 375 0
-80 86 -92 -375 0
-18 -21 -37 376 0
-18 -21 -37 -376 0
-15 -24 -44 -98 0
3 14 -15 377 0
-15 -25 -377 378 0
-25 -28 -378 379 0
-28 31 -379 380 0
31 -39 -380 381 0
-39 -41 -85 -381 0
13 35 -58 -62 0
-6 -14 -19 382 0
-19 -51 -382 383 0
-51 64 -98 -383 0
-42 -44 68 96 0
1 -53 -56 384 0
-56 -81 94 -384 0
57 -97 385 386 0
57 -97 385 -386 0
57 -97 -385 386 0
57 -97 -385 -386 0
-5 -45 70 387 0
70 93 98 -387 0
17 51 -65 388 0
-65 -80 85 -388 0
-10 -40 -52 69 0
31 69 -75 389 0
-75 97 98 -389 0
3 6 7 390 0
7 -39 -390 391 0
-39 41 -391 392 0
41 -61 -392 393 0
-61 65 -393 394 0
65 -80 -394 395 0
-80 94 -395 396 0
94 97 99 -396 0
-63 83 397 398 0
-63 83 397 -398 0
-63 83 -397 398 0
-63 83 -397 -398 0
-37 57 -71 93 0
-48 80 91 399 0
-48 80 91 -399 0
12 -64 -96 99 0
27 -36 39 400 0
39 59 60 -400 0
-33 69 88 401 0
88 90 92 -401 0
86 91 402 403 0
86 91 402 -403 0
86 91 -402 403 0
86 91 -402 -403 0
15 -24 -36 404 0
-36 -64 -404 405 0
-64 -77 -87 -405 0
47 58 406 407 0
47 58 406 -407 0
47 58 -406 407 0
47 58 -406 -407 0
6 16 -46 408 0
-46 52 -88 -408 0
42 61 62 -97 0
-18 -38 49 409 0
49 -54 -409 410 0
-54 -73 -410 411 0
-73 75 -411 412 0
75 80 -86 -412 0
20 83 -85 413 0
20 83 -85 -413 0
-12 -22 65 414 0
65 67 -414 415 0
67 -82 84 -415 0
-8 -23 -90 416 0
-8 -23 -90 -416 0
2 41 -85 417 0
2 41 -85 -417 0
-67 -80 418 419 0
-67 -80 418 -419 0
-67 -80 -418 419 0
-67 -80 -418 -419 0
-1 -24 26 -27 0
5 43 -44 420 0
-44 -58 -420 421 0
-58 68 -99 -421 0
17 44 53 422 0
53 -65 -69 -422 0
38 -41 -86 423 0
38 -41 -86 -423 0
28 39 50 424 0
50 53 82 -424 0
7 -21 25 425 0
25 -36 -41 -425 0
-6 -23 -28 426 0
-6 -23 -28 -426 0
46 47 -63 427 0
-63 67 -427 428 0
67 69 -428 429 0
69 90 -97 -429 0
-8 -11 38 430 0
38 75 90 -430 0
-10 -19 -56 431 0
-56 -81 -431 432 0
-81 92 93 -432 0
3 -4 70 433 0
70 73 95 -433 0
2 3 -5 434 0
-5 -10 -434 435 0
-10 70 -91 -435 0
56 -62 -74 436 0
-74 -95 -436 437 0
-95 97 -437 438 0
97 98 -100 -438 0
-48 69 -90 439 0
-48 69 -90 -439 0
-8 20 31 -49 0
-33 41 42 440 0
42 61 -440 441 0
61 76 -99 -441 0
-12 47 -83 442 0
-12 47 -83 -442 0
-26 31 48 443 0
48 -76 94 -443 0
-4 32 69 86 0
-23 29 51 444 0
51 65 -444 445 0
65 -80 -96 -445 0
80 -84 446 447 0
80 -84 446 -447 0
80 -84 -446 447 0
80 -84 -446 -447 0
6 -45 -52 448 0
6 -45 -52 -448 0
-18 -23 70 449 0
70 84 -95 -449 0
-1 -4 14 450 0
14 40 72 -450 0
53 60 69 451 0
69 71 -451 452 0
71 76 87 -452 0
-7 -16 27 453 0
27 28 -453 454 0
28 35 -454 455 0
35 -45 -455 456 0
-45 -72 -456 457 0
-72 80 89 -457 0
18 -23 34 458 0
34 -51 -458 459 0
-51 56 -76 -459 0
34 38 -67 -99 0
-7 -20 39 460 0
39 -51 -460 461 0
-51 76 -93 -461 0
-22 41 74 462 0
-22 41 74 -462 0
19 29 43 463 0
43 -49 -463 464 0
-49 52 -464 465 0
52 70 -72 -465 0
-8 28 57 466 0
-8 28 57 -466 0
-10 18 -20 -70 0
2 90 91 -96 0
32 74 467 468 0
32 74 467 -468 0
32 74 -467 468 0
32 74 -467 -468 0
-14 25 469 470 0
-14 25 469 -470 0
-14 25 -469 470 0
-14 25 -469 -470 0
-12 -17 -21 471 0
-21 34 -471 472 0
34 39 -472 473 0
39 -52 -473 474 0
-52 56 -474 475 0
56 -78 82 -475 0
-6 -74 97 476 0
-6 -74 97 -476 0
17 -27 -38 477 0
-38 -75 99 -477 0
16 18 36 478 0
36 72 -478 479 0
72 -75 82 -479 0
2 -33 480 481 0
2 -33 480 -481 0
2 -33 -480 481 0
2 -33 -480 -481 0
41 44 -71 77 0
-27 30 -40 91 0
14 15 46 482 0
14 15 46 -482 0
13 19 34 483 0
34 49 -483 484 0
49 56 -61 -484 0
-13 -73 485 486 0
-13 -73 485 -486 0
-13 -73 -485 486 0
-13 -73 -485 -486 0
5 10 19 487 0
19 -31 -487 488 0
-31 -72 -488 489 0
-72 75 -96 -489 0
-16 -18 27 490 0
27 -33 -490 491 0
-33 -37 -86 -491 0
36 41 -56 492 0
-56 -82 -492 493 0
-82 93 95 -493 0
21 -56 -85 494 0
21 -56 -85 -494 0
10 66 94 495 0
10 66 94 -495 0
-33 -43 -66 496 0
-66 73 -79 -496 0
2 -9 15 497 0
15 67 -71 -497 0
18 32 33 498 0
33 -68 99 -498 0
-8 -12 40 499 0
40 41 -499 500 0
41 -48 -500 501 0
-48 -53 -59 -501 0
14 -27 34 502 0
34 -35 -502 503 0
-35 -72 -503 504 0
-72 81 -84 -504 0
6 -17 -49 505 0
-49 -55 -505 506 0
-55 -68 -506 507 0
-68 95 97 -507 0
34 41 -42 508 0
-42 80 -90 -508 0
-3 -23 28 509 0
28 -35 -509 510 0
-35 -50 -510 511 0
-50 -54 -511 512 0
-54 -59 -89 -512 0
26 -52 -66 513 0
-66 -70 -513 514 0
-70 -74 84 -514 0
37 44 -55 515 0
-55 -84 86 -515 0
14 -27 -54 516 0
-54 -57 70 -516 0
-19 66 -71 517 0
-71 78 79 -517 0
23 -33 53 518 0
53 55 -518 519 0
55 68 -519 520 0
68 69 -520 521 0
69 85 -521 522 0
85 89 -95 -522 0
48 61 64 523 0
64 66 -523 524 0
66 -80 -97 -524 0
-37 -60 -66 525 0
-37 -60 -66 -525 0
-6 49 50 526 0
50 -56 -526 527 0
-56 77 -96 -527 0
8 46 72 528 0
72 -85 -95 -528 0
8 -29 37 529 0
37 59 65 -529 0
-1 -20 33 530 0
33 -74 -81 -530 0
65 -78 531 532 0
65 -78 531 -532 0
65 -78 -531 532 0
65 -78 -531 -532 0
-3 -6 -27 533 0
-27 -39 -533 534 0
-39 63 -534 535 0
63 64 -75 -535 0
5 37 -42 536 0
-42 49 -536 537 0
49 76 -537 538 0
76 -77 -88 -538 0
-14 17 -26 539 0
-26 -29 -539 540 0
-29 -65 -540 541 0
-65 -70 -541 542 0
-70 76 77 -542 0
8 -23 27 85 0
-74 79 543 544 0
-74 79 543 -544 0
-74 79 -543 544 0
-74 79 -543 -544 0
8 61 -83 545 0
-83 92 -545 546 0
92 -93 -96 -546 0
-23 -98 547 548 0
-23 -98 547 -548 0
-23 -98 -547 548 0
-23 -98 -547 -548 0
7 31 -32 549 0
-32 49 -549 550 0
49 50 -550 551 0
50 61 -551 552 0
61 69 -552 553 0
69 -77 -84 -553 0
-1 -45 49 554 0
49 -57 -554 555 0
-57 60 -555 556 0
60 -61 95 -556 0
-2 -6 -18 557 0
-18 -61 -557 558 0
-61 77 95 -558 0
42 -55 72 96 0
7 -38 -47 79 0
-51 -53 59 559 0
-51 -53 59 -559 0
15 16 -25 560 0
-25 -48 -560 561 0
-48 -54 89 -561 0
9 26 36 562 0
36 37 -562 563 0
37 -40 -563 564 0
-40 -50 -564 565 0
-50 65 -76 -565 0
-18 21 -27 566 0
-27 30 85 -566 0
-23 39 79 567 0
-23 39 79 -567 0
29 -36 45 568 0
45 -52 -568 569 0
-52 76 85 -569 0
5 -9 -31 570 0
-31 34 -570 571 0
34 40 -571 572 0
40 -47 -572 573 0
-47 -50 -573 574 0
-50 71 -574 575 0
71 -79 -96 -575 0
11 -16 -32 576 0
-32 35 -576 577 0
35 -38 -68 -577 0
-4 -13 24 578 0
24 -25 -578 579 0
-25 -43 -579 580 0
-43 -83 -580 581 0
-83 86 -98 -581 0
31 70 82 582 0
31 70 82 -582 0
35 62 -90 92 0
-25 80 583 584 0
-25 80 583 -584 0
-25 80 -583 584 0
-25 80 -583 -584 0
-18 33 -70 -99 0
-8 -17 37 585 0
37 -51 -585 586 0
-51 -63 -586 587 0
-63 92 -98 -587 0
-31 -45 51 588 0
51 58 -588 589 0
58 85 -89 -589 0
17 -85 93 590 0
17 -85 93 -590 0
-79 92 591 592 0
-79 92 591 -592 0
-79 92 -591 592 0
-79 92 -591 -592 0
2 -30 46 593 0
46 61 -593 594 0
61 -67 -594 595 0
-67 -77 84 -595 0
9 -10 -32 596 0
-32 56 92 -596 0
-22 -33 -38 597 0
-22 -33 -38 -597 0
-16 -71 598 599 0
-16 -71 598 -599 0
-16 -71 -598 599 0
-16 -71 -598 -599 0
12 -25 -40 600 0
12 -25 -40 -600 0
-14 17 -27 601 0
-27 42 60 -601 0
-24 -36 -42 602 0
-42 65 -602 603 0
65 70 -603 604 0
70 86 -604 605 0
86 88 -96 -605 0
27 67 72 87 0
-5 19 -21 -41 0
27 -28 40 85 0
9 11 -33 606 0
-33 36 -606 607 0
36 38 -59 -607 0
16 -21 49 608 0
49 60 -608 609 0
60 -62 -609 610 0
-62 -66 93 -610 0
-33 37 -54 67 0
11 -21 -59 -94 0
-10 -19 25 611 0
25 -79 -91 -611 0
19 21 74 612 0
19 21 74 -612 0
29 42 -62 613 0
-62 -71 -613 614 0
-71 -78 -614 615 0
-78 82 -95 -615 0
-4 -33 -44 616 0
-44 -61 -616 617 0
-61 64 -79 -617 0
-22 -54 618 619 0
-22 -54 618 -619 0
-22 -54 -618 619 0
-22 -54 -618 -619 0
-2 13 -55 620 0
-55 75 -620 621 0
75 -80 83 -621 0
-1 6 -19 622 0
-19 37 -622 623 0
37 -47 -623 624 0
-47 51 -624 625 0
51 54 -625 626 0
54 -56 -626 627 0
-56 -65 -91 -627 0
40 45 52 628 0
40 45 52 -628 0
46 84 629 630 0
46 84 629 -630 0
46 84 -629 630 0
46 84 -629 -630 0
-12 -49 59 631 0
59 77 -631 632 0
77 84 85 -632 0
28 36 39 633 0
39 46 -633 634 0
46 -79 -634 635 0
-79 82 -95 -635 0
10 -16 -33 636 0
-33 -35 -74 -636 0
19 -36 -41 637 0
-41 44 -637 638 0
44 58 -638 639 0
58 -69 91 -639 0
-9 27 30 640 0
30 36 -52 -640 0
-14 -43 -69 84 0
34 -36 69 80 0
22 43 44 641 0
44 85 -99 -641 0
24 39 51 642 0
51 73 82 -642 0
38 -41 83 643 0
38 -41 83 -643 0
6 -23 -67 -71 0
-2 -6 -18 75 0
10 -14 -17 644 0
-17 21 -644 645 0
21 -57 79 -645 0
20 44 47 646 0
47 50 -646 647 0
50 -53 -647 648 0
-53 -97 -648 649 0
-97 99 -100 -649 0
59 -70 -81 650 0
59 -70 -81 -650 0
-8 10 14 651 0
14 60 -651 652 0
60 78 -83 -652 0
15 19 31 653 0
31 -48 -653 654 0
-48 -87 -654 655 0
-87 92 96 -655 0
-32 -51 68 -93 0
-12 61 71 -80 0
57 61 -64 656 0
57 61 -64 -656 0
-12 -28 96 657 0
-12 -28 96 -657 0
-8 61 -76 658 0
-76 87 -658 659 0
87 93 -659 660 0
93 96 98 -660 0
-35 -40 -47 661 0
-47 -66 -661 662 0
-66 -90 -95 -662 0
-10 72 77 663 0
77 -80 -93 -663 0
61 -63 -66 -87 0
18 42 -52 99 0
-8 46 54 664 0
-8 46 54 -664 0
6 92 93 665 0
6 92 93 -665 0
60 -69 90 666 0
60 -69 90 -666 0
-4 51 -63 667 0
-63 67 -667 668 0
67 69 -668 669 0
69 -72 80 -669 0
-26 61 67 670 0
-26 61 67 -670 0
-1 28 -52 671 0
-1 28 -52 -671 0
-30 -40 51 672 0
51 52 -672 673 0
52 -93 -97 -673 0
-4 11 16 674 0
16 -21 -674 675 0
-21 31 -675 676 0
31 -52 65 -676 0
5 48 82 -87 0
-1 21 68 677 0
68 -70 -677 678 0
-70 -75 -678 679 0
-75 79 -679 680 0
79 85 96 -680 0
22 39 -57 681 0
-57 -70 -681 682 0
-70 74 -682 683 0
74 86 -683 684 0
86 -89 95 -684 0
-7 -27 -30 -46 0
-24 -33 -53 685 0
-24 -33 -53 -685 0
12 23 -24 686 0
-24 -34 -686 687 0
-34 -37 -687 688 0
-37 40 -688 689 0
40 -48 -689 690 0
-48 -50 -94 -690 0
-7 22 44 691 0
44 -67 -71 -691 0
5 -15 -23 692 0
-23 -28 -692 693 0
-28 -60 73 -693 0
-51 -53 77 694 0
-51 -53 77 -694 0
3 -98 695 696 0
3 -98 695 -696 0
3 -98 -695 696 0
3 -98 -695 -696 0
-6 10 -62 697 0
-62 -65 -90 -697 0
2 7 66 698 0
2 7 66 -698 0
-14 -54 79 699 0
-14 -54 79 -699 0
26 60 -74 700 0
-74 -89 94 -700 0
6 7 -19 701 0
-19 -49 -701 702 0
-49 -61 78 -702 0
3 6 8 703 0
8 40 -703 704 0
40 78 -84 -704 0
12 15 16 705 0
16 -48 -705 706 0
-48 50 -706 707 0
50 -70 -707 708 0
-70 74 -89 -708 0
2 -72 92 709 0
2 -72 92 -709 0
-46 66 -80 710 0
-46 66 -80 -710 0
-5 8 -57 711 0
-57 89 100 -711 0
21 -73 712 713 0
21 -73 712 -713 0
21 -73 -712 713 0
21 -73 -712 -713 0
1 36 -45 714 0
-45 48 -714 715 0
48 68 69 -715 0
-42 78 97 99 0
95 100 716 717 0
95 100 716 -717 0
95 100 -716 717 0
95 100 -716 -717 0
24 -33 -45 718 0
-45 -73 -718 719 0
-73 -86 -96 -719 0
56 67 720 721 0
56 67 720 -721 0
56 67 -720 721 0
56 67 -720 -721 0
-6 15 25 722 0
25 -55 -722 723 0
-55 61 -97 -723 0
51 70 71 724 0
51 70 71 -724 0
-27 -47 58 725 0
58 -63 -725 726 0
-63 -82 -726 727 0
-82 84 -727 728 0
84 89 -95 -728 0
29 92 -94 729 0
29 92 -94 -729 0
-21 -31 74 730 0
74 76 -730 731 0
76 -91 93 -731 0
-17 -32 -99 732 0
-17 -32 -99 -732 0
11 50 -94 733 0
11 50 -94 -733 0
-76 -89 734 735 0
-76 -89 734 -735 0
-76 -89 -734 735 0
-76 -89 -734 -735 0
-8 -10 -33 736 0
-33 35 -36 -736 0
14 52 -53 737 0
-53 -67 77 -737 0
26 53 62 738 0
62 -74 -78 -738 0
47 -50 -95 739 0
47 -50 -95 -739 0
37 48 59 740 0
59 62 91 -740 0
16 -30 34 741 0
34 -45 -50 -741 0
-6 -15 -32 -37 0
55 56 -72 742 0
-72 76 -742 743 0
76 78 99 -743 0
1 2 -17 744 0
-17 -20 -744 745 0
-20 47 -745 746 0
47 84 99 -746 0
4 -19 -28 747 0
-28 -65 -90 -747 0
12 -13 79 82 0
-4 6 7 748 0
7 -9 -748 749 0
-9 11 -749 750 0
11 12 -750 751 0
12 -14 -751 752 0
-14 -19 -752 753 0
-19 79 -100 -753 0
65 -71 -83 754 0
65 -71 -83 -754 0
-57 78 -99 755 0
-57 78 -99 -755 0
-8 -17 29 756 0
29 40 -58 -756 0
-42 50 51 757 0
51 70 85 -757 0
3 -21 56 -92 0
-35 40 57 -85 0
-5 -13 41 758 0
41 78 95 -758 0
-32 38 60 759 0
60 74 -89 -759 0
89 -93 760 761 0
89 -93 760 -761 0
89 -93 -760 761 0
89 -93 -760 -761 0
-4 15 -54 -61 0
-27 -32 79 93 0
-10 -13 23 762 0
23 49 81 -762 0
62 69 78 763 0
78 80 -763 764 0
80 85 96 -764 0
-16 -25 36 765 0
36 37 -765 766 0
37 44 -766 767 0
44 -54 -767 768 0
-54 -81 -768 769 0
-81 89 98 -769 0
-8 27 -32 770 0
-32 43 -770 771 0
43 -60 -771 772 0
-60 65 -85 -772 0
-2 43 47 -76 0
-16 -29 48 773 0
48 -60 85 -773 0
-31 50 83 774 0
-31 50 83 -774 0
28 38 52 775 0
52 -58 -775 776 0
-58 61 -776 777 0
61 79 -81 -777 0
-17 37 66 778 0
-17 37 66 -778 0
-5 -19 27 779 0
27 -29 -79 -779 0
11 99 100 780 0
11 99 100 -780 0
41 83 781 782 0
41 83 781 -782 0
41 83 -781 782 0
41 83 -781 -782 0
-23 34 783 784 0
-23 34 783 -784 0
-23 34 -783 784 0
-23 34 -783 -784 0
6 -21 -26 785 0
-26 -30 -785 786 0
-30 43 -786 787 0
43 48 -787 788 0
48 -61 -788 789 0
-61 65 -789 790 0
65 -87 91 -790 0
8 -15 -83 791 0
8 -15 -83 -791 0
26 -36 -47 -84 0
25 27 45 792 0
45 81 -792 793 0
81 -84 91 -793 0
11 -42 794 795 0
11 -42 794 -795 0
11 -42 -794 795 0
11 -42 -794 -795 0
50 53 -80 86 0
-36 39 -49 100 0
23 24 55 796 0
23 24 55 -796 0
22 28 43 797 0
43 58 -797 798 0
58 65 -70 -798 0
-5 -22 -82 799 0
-5 -22 -82 -799 0
14 19 28 800 0
28 -40 -800 801 0
-40 -81 84 -801 0
2 4 -25 802 0
-25 -27 -802 803 0
-27 36 -803 804 0
36 -42 -804 805 0
-42 -46 -95 -805 0
45 50 -65 -91 0
3 30 -65 -94 0
19 75 806 807 0
19 75 806 -807 0
19 75 -806 807 0
19 75 -806 -807 0
-42 -52 -75 808 0
-75 82 -88 -808 0
8 11 -18 809 0
-18 24 -809 810 0
24 76 -80 -810 0
27 41 42 -77 0
-17 -21 49 811 0
49 50 -811 812 0
50 -57 -812 813 0
-57 -62 -68 -813 0
4 6 23 814 0
23 -36 -814 815 0
-36 43 -815 816 0
43 -44 -816 817 0
-44 -81 -817 818 0
-81 90 -93 -818 0
15 -26 -58 819 0
-58 -64 -77 -819 0
43 50 -51 820 0
-51 89 -99 -820 0
-12 -32 37 821 0
37 -44 -821 822 0
-44 -59 -822 823 0
-59 -63 -823 824 0
-63 -68 -98 -824 0
35 -61 -75 825 0
-75 -79 -825 826 0
-79 -83 93 -826 0
46 53 -64 827 0
-64 -93 95 -827 0
23 -36 -63 828 0
-63 -66 79 -828 0
-4 -28 75 829 0
75 -80 -829 830 0
-80 87 88 -830 0
-6 32 -42 831 0
-42 62 -831 832 0
62 64 -832 833 0
64 77 -833 834 0
77 78 -834 835 0
78 94 98 -835 0
57 70 73 836 0
73 75 -89 -836 0
-5 -46 -69 -75 0
-4 -15 58 837 0
58 59 -837 838 0
59 -65 86 -838 0
17 55 81 -94 0
17 -38 46 839 0
46 68 74 -839 0
-10 -29 42 840 0
42 -83 -90 -840 0
74 -87 841 842 0
74 -87 841 -842 0
74 -87 -841 842 0
74 -87 -841 -842 0
-12 -15 -36 843 0
-36 -48 -843 844 0
-48 72 -844 845 0
72 73 -84 -845 0
14 46 -51 846 0
-51 58 -846 847 0
58 85 -847 848 0
85 -86 -97 -848 0
-23 26 -35 849 0
-35 -38 -849 850 0
-38 -74 -850 851 0
-74 -79 -851 852 0
-79 85 86 -852 0
17 -32 36 94 0
1 -2 -5 853 0
-5 -83 88 -853 0
-7 17 70 -92 0
4 16 40 854 0
40 -41 -854 855 0
-41 58 -855 856 0
58 59 -856 857 0
59 70 -857 858 0
70 78 -858 859 0
78 -86 -93 -859 0
4 -10 -54 860 0
-54 58 -860 861 0
58 -66 -861 862 0
-66 69 -70 -862 0
-11 -15 -27 863 0
-27 -70 86 -863 0
5 89 864 865 0
5 89 864 -865 0
5 89 -864 865 0
5 89 -864 -865 0
51 -64 81 866 0
51 -64 81 -866 0
16 -47 -56 88 0
-60 -62 68 867 0
-60 -62 68 -867 0
24 25 -34 868 0
-34 -57 -868 869 0
-57 -63 98 -869 0
18 35 45 870 0
45 46 -870 871 0
46 -49 -871 872 0
-49 -59 -872 873 0
-59 74 -85 -873 0
-27 30 -36 874 0
-36 39 94 -874 0
-32 48 88 875 0
-32 48 88 -875 0
38 -45 54 876 0
54 -61 -876 877 0
-61 85 94 -877 0
-5 23 878 879 0
-5 23 878 -879 0
-5 23 -878 879 0
-5 23 -878 -879 0
14 -18 -40 880 0
-40 43 -880 881 0
43 49 -881 882 0
49 -56 -882 883 0
-56 -59 -883 884 0
-59 80 -88 -884 0
-7 20 -25 885 0
-25 -41 -885 886 0
-41 44 -886 887 0
44 -47 -77 -887 0
-13 -22 33 888 0
33 -34 -888 889 0
-34 -52 -889 890 0
-52 -92 95 -890 0
1 40 79 91 0
44 71 -99 891 0
44 71 -99 -891 0
-8 -34 89 892 0
-8 -34 89 -892 0
-27 42 -79 893 0
-27 42 -79 -893 0
1 -7 -49 894 0
1 -7 -49 -894 0
-17 -26 46 895 0
46 -60 -72 -895 0
2 -40 -54 896 0
-54 60 -896 897 0
60 67 -897 898 0
67 94 -98 -898 0
1 26 -94 899 0
1 26 -94 -899 0
1 11 -39 900 0
-39 55 -900 901 0
55 70 -901 902 0
70 -76 -902 903 0
-76 -86 93 -903 0
18 -19 -41 65 0
-31 -42 -47 904 0
-31 -42 -47 -904 0
-25 -80 905 906 0
-25 -80 905 -906 0
-25 -80 -905 906 0
-25 -80 -905 -906 0
21 -34 -49 907 0
21 -34 -49 -907 0
-5 -23 26 908 0
26 -36 -908 909 0
-36 51 69 -909 0
-33 -45 -51 910 0
-51 74 -910 911 0
74 79 -911 912 0
79 95 97 -912 0
36 76 81 96 0
-14 28 -30 -50 0
36 -37 49 94 0
2 18 20 913 0
20 -42 -913 914 0
-42 45 -914 915 0
45 47 -68 -915 0
25 -30 58 916 0
58 69 -916 917 0
69 -71 -75 -917 0
-3 -42 46 918 0
46 -63 76 -918 0
20 -30 -68 919 0
20 -30 -68 -919 0
-19 -28 34 920 0
34 -88 -100 -920 0
-4 28 30 83 0
38 51 -71 921 0
-71 -80 -921 922 0
-80 -87 91 -922 0
-13 -42 -53 923 0
-53 -70 -923 924 0
-70 73 -88 -924 0
-31 -63 925 926 0
-31 -63 925 -926 0
-31 -63 -925 926 0
-31 -63 -925 -926 0
-11 22 -64 927 0
-64 84 -927 928 0
84 -89 92 -928 0
-10 15 -28 929 0
-28 46 -929 930 0
46 -56 -930 931 0
-56 60 -931 932 0
60 63 -932 933 0
63 -65 -933 934 0
-65 -74 -100 -934 0
49 54 61 935 0
49 54 61 -935 0
55 93 936 937 0
55 93 936 -937 0
55 93 -936 937 0
55 93 -936 -937 0
-4 -21 -58 938 0
-58 68 -938 939 0
68 86 -939 940 0
86 93 94 -940 0
37 45 48 941 0
48 55 -941 942 0
55 -88 91 -942 0
19 -25 -42 943 0
-42 -44 -83 -943 0
28 -45 -50 944 0
-50 53 -944 945 0
53 67 -945 946 0
67 -78 100 -946 0
-18 36 39 947 0
39 45 -61 -947 0
-23 -52 -78 93 0
-8 43 -45 948 0
-45 78 89 -948 0
31 52 53 94 0
33 48 60 949 0
60 82 91 -949 0
47 -50 92 950 0
47 -50 92 -950 0
15 -32 -76 -80 0
-11 -15 -27 84 0
-6 8 -9 951 0
-9 19 -951 952 0
19 -23 -952 953 0
-23 -26 -953 954 0
-26 30 -954 955 0
30 -66 88 -955 0
29 53 56 956 0
56 59 -62 -956 0
68 -79 -90 957 0
68 -79 -90 -957 0
1 5 -17 958 0
-17 19 -958 959 0
19 23 -959 960 0
23 69 -960 961 0
69 87 -92 -961 0
-2 24 28 962 0
28 40 -962 963 0
40 -57 -96 -963 0
-41 -60 77 964 0
-41 -60 77 -964 0
-21 70 80 -89 0
5 66 70 -73 0
2 5 7 965 0
7 -21 -37 -965 0
-4 -17 70 966 0
70 -85 96 -966 0
-2 -44 -49 967 0
-49 -56 -967 968 0
-56 -75 -99 -968 0
-19 81 86 -89 0
8 70 -72 969 0
-72 -75 -96 -969 0
27 51 -61 970 0
27 51 -61 -970 0
1 2 -17 971 0
-17 55 63 -971 0
69 -78 99 972 0
69 -78 99 -972 0
-13 60 -72 973 0
-72 76 -973 974 0
76 78 -974 975 0
78 -81 89 -975 0
-35 70 76 976 0
-35 70 76 -976 0
-2 -6 -10 977 0
-10 37 -61 -977 0
-39 -49 60 61 0
-13 20 25 978 0
25 -30 -978 979 0
-30 40 -979 980 0
40 -61 74 -980 0
5 14 57 981 0
57 91 -96 -981 0
4 -10 30 982 0
30 77 -982 983 0
77 -79 -983 984 0
-79 -84 -984 985 0
-84 88 94 -985 0
31 48 -66 986 0
-66 -79 -986 987 0
-79 83 -987 988 0
83 95 -98 -988 0
-16 -36 -39 -55 0
-3 -33 -42 -62 0
21 32 -33 989 0
-33 -43 -989 990 0
-43 -46 -990 991 0
-46 49 -991 992 0
49 -57 -59 -992 0
-16 31 53 993 0
53 -76 -80 -993 0
14 -24 -32 994 0
-32 -37 -994 995 0
-37 -69 82 -995 0
-7 -60 -62 86 0
-15 19 -71 996 0
-71 -74 -99 -996 0
11 16 75 997 0
11 16 75 -997 0
-23 -63 88 998 0
-23 -63 88 -998 0
3 69 999 1000 0
3 69 999 -1000 0
3 69 -999 1000 0
3 69 -999 -1000 0
35 69 -83 -98 0
15 16 -28 1001 0
-28 -58 -1001 1002 0
-58 -70 87 -1002 0
12 15 17 1003 0
17 49 -1003 1004 0
49 87 -93 -1004 0
1 21 24 1005 0
24 25 -1005 1006 0
25 -57 -1006 1007 0
-57 59 -1007 1008 0
59 -79 -1008 1009 0
-79 83 -98 -1009 0
11 -81 1010 1011 0
11 -81 1010 -1011 0
11 -81 -1010 1011 0
11 -81 -1010 -1011 0
9 -55 75 -89 0
-14 17 -66 98 0
30 -82 1012 1013 0
30 -82 1012 -1013 0
30 -82 -1012 1013 0
30 -82 -1012 -1013 0
6 8 10 1014 0
10 45 -1014 1015 0
45 -54 -1015 1016 0
-54 57 -1016 1017 0
57 77 78 -1017 0
4 9 -51 87 0
33 -42 -54 1018 0
-54 -82 -95 -1018 0
-6 65 76 1019 0
-6 65 76 -1019 0
-15 24 34 1020 0
34 -64 70 -1020 0
-4 60 79 80 0
1 -3 -36 1021 0
-36 -56 -1021 1022 0
-56 67 -1022 1023 0
67 -72 -1023 1024 0
-72 -91 -1024 1025 0
-91 93 98 -1025 0
2 38 1026 1027 0
2 38 1026 -1027 0
2 38 -1026 1027 0
2 38 -1026 -1027 0
-8 -30 -40 1028 0
-40 83 -1028 1029 0
83 85 -100 -1029 0
-3 -26 -41 1030 0
-3 -26 -41 -1030 0
20 59 1031 1032 0
20 59 1031 -1032 0
20 59 -1031 1032 0
20 59 -1031 -1032 0
-85 -98 1033 1034 0
-85 -98 1033 -1034 0
-85 -98 -1033 1034 0
-85 -98 -1033 -1034 0
-17 -19 -42 1035 0
-42 44 -45 -1035 0
23 61 -62 1036 0
-62 -76 86 -1036 0
-4 35 62 1037 0
62 71 -1037 1038 0
71 -83 -87 -1038 0
56 -59 1039 1040 0
56 -59 1039 -1040 0
56 -59 -1039 1040 0
56 -59 -1039 -1040 0
46 57 68 1041 0
68 71 100 -1041 0
25 -39 43 1042 0
43 -54 -59 -1042 0
8 -15 -24 1043 0
-24 -41 -46 -1043 0
8 64 65 1044 0
65 -81 -1044 1045 0
-81 85 87 -1045 0
10 11 -26 1046 0
-26 -29 -1046 1047 0
-29 56 93 -1047 0
13 -28 -37 1048 0
-37 -74 -99 -1048 0
-9 21 -22 1049 0
-22 88 91 -1049 0
-13 15 16 1050 0
16 -18 -1050 1051 0
-18 20 -1051 1052 0
20 21 -1052 1053 0
21 -23 -1053 1054 0
-23 -28 88 -1054 0
-8 74 -80 -92 0
-66 87 1055 1056 0
-66 87 1055 -1056 0
-66 87 -1055 1056 0
-66 87 -1055 -1056 0
-17 -26 38 1057 0
38 49 -67 -1057 0
-1 -51 59 1058 0
59 60 -1058 1059 0
60 79 94 -1059 0
12 -30 65 1060 0
12 -30 65 -1060 0
4 -44 49 1061 0
49 66 -94 -1061 0
-14 -22 50 87 0
-2 -41 47 1062 0
47 69 -1062 1063 0
69 83 -98 -1063 0
2 -13 24 1064 0
24 -63 -70 -1064 0
-36 -41 88 1065 0
-36 -41 88 -1065 0
5 -19 -22 1066 0
-22 32 -1066 1067 0
32 58 90 -1067 0
7 71 78 1068 0
78 87 -1068 1069 0
87 89 94 -1069 0
-25 -34 45 1070 0
45 46 -1070 1071 0
46 53 -1071 1072 0
53 -63 -1072 1073 0
-63 -90 98 -1073 0
-17 36 -41 1074 0
-41 52 -1074 1075 0
52 -69 -1075 1076 0
-69 74 -94 -1076 0
-11 52 56 -85 0
-25 -38 57 1077 0
57 -69 94 -1077 0
-40 59 92 1078 0
-40 59 92 -1078 0
37 47 61 1079 0
61 -67 -1079 1080 0
-67 70 -1080 1081 0
70 88 -90 -1081 0
-26 46 75 1082 0
-26 46 75 -1082 0
8 9 -14 1083 0
-14 -28 -1083 1084 0
-28 36 -1084 1085 0
36 -38 -88 -1085 0
50 92 1086 1087 0
50 92 1086 -1087 0
50 92 -1086 1087 0
50 92 -1086 -1087 0
-32 43 1088 1089 0
-32 43 1088 -1089 0
-32 43 -1088 1089 0
-32 43 -1088 -1089 0
15 -30 -35 1090 0
-35 -39 -1090 1091 0
-39 52 -1091 1092 0
52 57 -1092 1093 0
57 -70 -1093 1094 0
-70 74 -1094 1095 0
74 -96 100 -1095 0
17 -24 -92 1096 0
17 -24 -92 -1096 0
35 -45 -56 -93 0
34 36 54 1097 0
54 90 -1097 1098 0
90 -93 100 -1098 0
20 -51 1099 1100 0
20 -51 1099 -1100 0
20 -51 -1099 1100 0
20 -51 -1099 -1100 0
9 59 62 1101 0
62 -89 95 -1101 0
-45 48 -58 1102 0
-45 48 -58 -1102 0
32 33 64 1103 0
32 33 64 -1103 0
31 37 52 1104 0
52 67 -1104 1105 0
67 74 -79 -1105 0
-14 -31 -91 1106 0
-14 -31 -91 -1106 0
-4 23 28 1107 0
28 37 -1107 1108 0
37 -49 -1108 1109 0
-49 -90 93 -1109 0
11 13 -34 1110 0
-34 -36 -1110 1111 0
-36 45 -1111 1112 0
45 -51 -55 -1112 0
-3 54 59 1113 0
59 -74 -100 -1113 0
12 39 -74 1114 0
12 39 -74 -1114 0
28 84 1115 1116 0
28 84 1115 -1116 0
28 84 -1115 1116 0
28 84 -1115 -1116 0
-51 -61 -84 1117 0
-84 91 -97 -1117 0
17 20 -27 1118 0
-27 33 -1118 1119 0
33 85 -89 -1119 0
36 50 51 -86 0
-2 -26 -30 1120 0
-30 58 -1120 1121 0
58 59 -1121 1122 0
59 -66 -1122 1123 0
-66 -71 -77 -1123 0
13 15 32 1124 0
32 -45 -1124 1125 0
-45 52 -1125 1126 0
52 -53 -1126 1127 0
-53 -90 99 -1127 0
-8 24 -35 1128 0
-35 -67 -1128 1129 0
-67 -73 -86 -1129 0
-7 52 59 1130 0
59 -60 98 -1130 0
2 -21 -41 1131 0
-41 46 -1131 1132 0
46 -53 -1132 1133 0
-53 -68 -1133 1134 0
-68 -72 -77 -1134 0
-2 4 44 1135 0
44 -70 -1135 1136 0
-70 -84 -1136 1137 0
-84 -88 -92 -1137 0
55 62 -73 1138 0
55 62 -73 -1138 0
32 -45 -72 1139 0
-72 -75 88 -1139 0
3 7 -13 1140 0
-13 -37 -1140 1141 0
-37 84 -1141 1142 0
84 -89 -1142 1143 0
-89 96 97 -1143 0
-15 41 -51 1144 0
-51 71 -1144 1145 0
71 73 -1145 1146 0
73 86 87 -1146 0
66 79 82 1147 0
82 84 -98 -1147 0
-14 -55 -78 -84 0
-3 -13 -24 1148 0
-24 67 -1148 1149 0
67 68 -1149 1150 0
68 -74 95 -1150 0
26 64 90 1151 0
26 64 90 -1151 0
26 -47 55 1152 0
55 77 83 -1152 0
-19 -38 51 1153 0
51 -92 -99 -1153 0
83 -96 1154 1155 0
83 -96 1154 -1155 0
83 -96 -1154 1155 0
83 -96 -1154 -1155 0
-6 -21 -24 1156 0
-24 -45 -1156 1157 0
-45 -57 -1157 1158 0
-57 81 -1158 1159 0
81 82 -93 -1159 0
23 55 -60 1160 0
-60 67 -1160 1161 0
67 94 -95 -1161 0
3 -32 35 1162 0
35 -44 -1162 1163 0
-44 -47 -1163 1164 0
-47 -83 -1164 1165 0
-83 -88 -1165 1166 0
-88 94 95 -1166 0
26 -41 45 1167 0
26 -41 45 -1167 0
-1 10 -11 1168 0
-11 -14 -1168 1169 0
-14 -92 97 -1169 0
-16 26 79 1170 0
-16 26 79 -1170 0
-2 -41 1171 1172 0
-2 -41 1171 -1172 0
-2 -41 -1171 1172 0
-2 -41 -1171 -1172 0
13 25 49 1173 0
49 -50 -1173 1174 0
-50 67 -1174 1175 0
67 68 -1175 1176 0
68 79 -1176 1177 0
79 87 -95 -1177 0
13 -19 -63 1178 0
-63 67 -1178 1179 0
67 -75 -1179 1180 0
-75 78 -79 -1180 0
-20 -24 -36 1181 0
-36 -79 95 -1181 0
14 98 1182 1183 0
14 98 1182 -1183 0
14 98 -1182 1183 0
14 98 -1182 -1183 0
60 -73 90 1184 0
60 -73 90 -1184 0
25 -56 -65 97 0
7 -69 -71 77 0
33 34 -43 1185 0
-43 -66 -72 -1185 0
3 27 44 1186 0
44 54 -1186 1187 0
54 55 -1187 1188 0
55 -58 -1188 1189 0
-58 -68 -1189 1190 0
-68 83 -94 -1190 0
-36 39 -45 48 0
3 -41 57 97 0
47 -54 63 1191 0
63 -70 94 -1191 0
-14 32 1192 1193 0
-14 32 1192 -1193 0
-14 32 -1192 1193 0
-14 32 -1192 -1193 0
23 -27 -49 1194 0
-49 52 -1194 1195 0
52 58 -1195 1196 0
58 -65 -1196 1197 0
-65 -68 -1197 1198 0
-68 89 -97 -1198 0
-1 4 -16 1199 0
-16 29 -1199 1200 0
29 -34 -1200 1201 0
-34 -50 -1201 1202 0
-50 53 -1202 1203 0
53 -56 -86 -1203 0
-22 -31 42 1204 0
42 -43 -61 -1204 0
-8 10 49 1205 0
49 88 100 -1205 0
53 80 1206 1207 0
53 80 1206 -1207 0
53 80 -1206 1207 0
53 80 -1206 -1207 0
-17 -43 98 1208 0
-17 -43 98 -1208 0
-36 51 -88 1209 0
-36 51 -88 -1209 0
10 -16 -58 1210 0
10 -16 -58 -1210 0
3 -7 -26 1211 0
-26 -35 -1211 1212 0
-35 55 -1212 1213 0
55 -69 -81 -1213 0
-3 11 -49 1214 0
-49 -63 -1214 1215 0
-63 69 76 -1215 0
10 35 1216 1217 0
10 35 1216 -1217 0
10 35 -1216 1217 0
10 35 -1216 -1217 0
2 -97 1218 1219 0
2 -97 1218 -1219 0
2 -97 -1218 1219 0
2 -97 -1218 -1219 0
10 20 -48 1220 0
-48 64 -1220 1221 0
64 79 -1221 1222 0
79 -85 -95 -1222 0
27 -28 -50 74 0
-40 -51 -56 1223 0
-40 -51 -56 -1223 0
-34 -89 1224 1225 0
-34 -89 1224 -1225 0
-34 -89 -1224 1225 0
-34 -89 -1224 -1225 0
30 -43 -58 1226 0
30 -43 -58 -1226 0
4 6 -14 1227 0
-14 -32 -1227 1228 0
-32 35 -1228 1229 0
35 -45 -1229 1230 0
-45 60 78 -1230 0
5 -42 -54 1231 0
-54 -60 -1231 1232 0
-60 83 88 -1232 0
45 85 90 1233 0
45 85 90 -1233 0
3 -23 37 1234 0
37 -39 -59 -1234 0
45 -46 58 1235 0
45 -46 58 -1235 0
11 27 29 1236 0
29 -51 -1236 1237 0
-51 54 -1237 1238 0
54 56 -77 -1238 0
34 -39 67 1239 0
67 78 -1239 1240 0
78 -80 -84 -1240 0
-12 -51 55 1241 0
55 -72 85 -1241 0
-9 29 -39 -77 0
-28 -37 43 -97 0
-13 37 39 92 0
47 60 -80 1242 0
-80 -89 -1242 1243 0
-89 -96 100 -1243 0
-22 -51 -62 1244 0
-62 -79 -1244 1245 0
-79 82 -97 -1245 0
1 -40 -72 1246 0
1 -40 -72 -1246 0
-9 -20 31 1247 0
31 -73 -1247 1248 0
-73 93 -98 -1248 0
-19 24 -37 1249 0
-37 55 -1249 1250 0
55 -65 -1250 1251 0
-65 69 -1251 1252 0
69 72 -1252 1253 0
72 -74 -83 -1253 0
2 58 63 70 0
2 3 64 1254 0
2 3 64 -1254 0
-13 -30 -67 1255 0
-67 77 95 -1255 0
46 54 57 1256 0
57 64 -1256 1257 0
64 -97 100 -1257 0
9 28 -34 1258 0
-34 -51 -1258 1259 0
-51 -53 -92 -1259 0
37 -54 -59 1260 0
-59 62 -1260 1261 0
62 76 -87 -1261 0
2 -27 45 1262 0
45 48 -1262 1263 0
48 54 -70 -1263 0
-32 -61 -87 1264 0
-32 -61 -87 -1264 0
3 -17 52 1265 0
52 -54 -1265 1266 0
-54 87 98 -1266 0
40 61 62 1267 0
40 61 62 -1267 0
1 42 57 1268 0
57 69 -1268 1269 0
69 91 100 -1269 0
56 -59 1270 1271 0
56 -59 1270 -1271 0
56 -59 -1270 1271 0
56 -59 -1270 -1271 0
24 -41 -85 -89 0
-20 -24 -36 93 0
-15 17 -18 1272 0
-18 28 -1272 1273 0
28 -32 -1273 1274 0
-32 -35 -1274 1275 0
-35 39 -1275 1276 0
39 -75 97 -1276 0
38 62 65 1277 0
65 68 -71 -1277 0
-1 77 -88 -99 0
-5 10 14 1278 0
14 -26 -1278 1279 0
-26 28 -1279 1280 0
28 32 -1280 1281 0
32 78 96 -1281 0
-11 33 37 1282 0
37 49 -66 -1282 0
-50 -69 86 1283 0
-50 -69 86 -1283 0
-30 79 89 -98 0
14 75 79 -82 0
5 11 14 1284 0
14 16 -1284 1285 0
16 -30 -46 -1285 0
-8 -13 -26 1286 0
-26 79 -94 -1286 0
-11 -53 -58 1287 0
-58 -65 -84 -1287 0
-5 -28 90 1288 0
90 95 -98 -1288 0
17 79 -81 -84 0
36 60 -70 1289 0
36 60 -70 -1289 0
10 11 -26 1290 0
-26 64 72 -1290 0
8 24 1291 1292 0
8 24 1291 -1292 0
8 24 -1291 1292 0
8 24 -1291 -1292 0
78 -87 1293 1294 0
78 -87 1293 -1294 0
78 -87 -1293 1294 0
78 -87 -1293 -1294 0
-22 69 -81 1295 0
-81 85 -1295 1296 0
85 87 -1296 1297 0
87 -90 98 -1297 0
-44 79 85 1298 0
-44 79 85 -1298 0
-11 -15 -19 1299 0
-19 46 -70 -1299 0
-48 -58 69 70 0
-5 -22 29 1300 0
29 34 -1300 1301 0
34 -39 -1301 1302 0
-39 49 -1302 1303 0
49 -70 83 -1303 0
3 14 23 1304 0
23 66 100 -1304 0
4 -7 13 1305 0
13 -19 -1305 1306 0
-19 39 -1306 1307 0
39 86 -1307 1308 0
86 -88 -1308 1309 0
-88 -93 97 -1309 0
40 57 -75 1310 0
-75 -88 92 -1310 0
-25 -45 -48 -64 0
-12 -42 -51 -71 0
30 41 -42 1311 0
-42 -52 -1311 1312 0
-52 -55 -1312 1313 0
-55 58 -1313 1314 0
58 -66 -68 -1314 0
-25 40 62 1315 0
62 -85 -89 -1315 0
23 -33 -41 1316 0
-41 -46 -1316 1317 0
-46 -78 91 -1317 0
-16 -69 -71 95 0
-8 21 1318 1319 0
-8 21 1318 -1319 0
-8 21 -1318 1319 0
-8 21 -1318 -1319 0
-24 28 -80 -83 0
20 25 84 1320 0
20 25 84 -1320 0
-32 -72 97 1321 0
-32 -72 97 -1321 0
-7 12 78 1322 0
-7 12 78 -1322 0
2 44 78 -92 0
-2 24 25 1323 0
25 -37 -1323 1324 0
-37 -67 -1324 1325 0
-67 -79 96 -1325 0
-7 21 24 1326 0
24 26 -1326 1327 0
26 58 96 -1327 0
10 30 33 1328 0
33 34 -1328 1329 0
34 -66 -1329 1330 0
-66 68 -1330 1331 0
68 -88 92 -1331 0
20 -90 1332 1333 0
20 -90 1332 -1333 0
20 -90 -1332 1333 0
20 -90 -1332 -1333 0
7 18 -64 1334 0
-64 84 -98 -1334 0
-23 26 -75 1335 0
-23 26 -75 -1335 0
39 -91 1336 1337 0
39 -91 1336 -1337 0
39 -91 -1336 1337 0
39 -91 -1336 -1337 0
15 17 19 1338 0
19 54 -1338 1339 0
54 -63 -1339 1340 0
-63 66 -1340 1341 0
66 86 87 -1341 0
13 18 -60 96 0
-4 -14 1342 1343 0
-4 -14 1342 -1343 0
-4 -14 -1342 1343 0
-4 -14 -1342 -1343 0
42 -51 -63 -91 0
-15 74 85 1344 0
-15 74 85 -1344 0
-24 33 43 1345 0
43 -73 79 -1345 0
2 7 -13 1346 0
-13 69 -1346 1347 0
69 88 89 -1347 0
10 -12 -45 1348 0
-45 -65 -1348 1349 0
-65 76 -1349 1350 0
76 -81 -100 -1350 0
-9 11 47 1351 0
-9 11 47 -1351 0
-17 -39 -49 1352 0
-49 92 94 -1352 0
-12 -35 -50 1353 0
-12 -35 -50 -1353 0
-7 29 68 1354 0
-7 29 68 -1354 0
-26 -28 -51 1355 0
-51 53 -54 -1355 0
32 70 -71 1356 0
-71 -85 95 -1356 0
-13 44 71 1357 0
71 80 -1357 1358 0
80 -92 -96 -1358 0
9 65 -68 1359 0
9 65 -68 -1359 0
55 66 77 80 0
34 -48 52 1360 0
52 -63 -68 -1360 0
17 -24 -33 1361 0
-33 -50 -55 -1361 0
2 17 73 1362 0
73 74 -1362 1363 0
74 -90 -1363 1364 0
-90 94 96 -1364 0
-8 19 20 1365 0
20 -35 -1365 1366 0
-35 -38 65 -1366 0
22 -37 -46 -83 0
-18 30 -31 1367 0
-31 97 100 -1367 0
-1 -22 24 1368 0
24 25 -1368 1369 0
25 -27 -1369 1370 0
-27 29 -1370 1371 0
29 30 -1371 1372 0
30 -32 -1372 1373 0
-32 -37 97 -1373 0
-17 83 -89 1374 0
-17 83 -89 -1374 0
-75 96 1375 1376 0
-75 96 1375 -1376 0
-75 96 -1375 1376 0
-75 96 -1375 -1376 0
3 -26 -35 1377 0
-35 47 -1377 1378 0
47 58 -76 -1378 0
-10 -60 68 1379 0
68 69 88 -1379 0
-3 21 -39 74 0
13 -53 58 75 0
-7 -23 -31 1380 0
-31 59 96 -1380 0
7 -11 -50 1381 0
-50 56 -1381 1382 0
56 78 92 -1382 0
11 -22 33 1383 0
33 -72 -79 -1383 0
-45 -50 97 1384 0
-45 -50 97 -1384 0
3 14 -28 1385 0
-28 -31 -1385 1386 0
-31 41 -1386 1387 0
41 67 99 -1387 0
7 16 80 1388 0
80 87 -1388 1389 0
87 96 98 -1389 0
-3 -34 -43 1390 0
-43 54 -1390 1391 0
54 55 -1391 1392 0
55 62 -1392 1393 0
62 -72 -99 -1393 0
-26 45 -50 1394 0
-50 61 -1394 1395 0
61 -78 83 -1395 0
3 -20 61 1396 0
61 65 -94 -1396 0
1 -34 -47 1397 0
-47 66 -78 -1397 0
-49 68 1398 1399 0
-49 68 1398 -1399 0
-49 68 -1398 1399 0
-49 68 -1398 -1399 0
46 56 70 1400 0
70 -76 -1400 1401 0
-76 79 -1401 1402 0
79 97 -99 -1402 0
-35 55 84 1403 0
-35 55 84 -1403 0
17 18 -23 1404 0
-23 -37 -1404 1405 0
-37 45 -1405 1406 0
45 -47 -97 -1406 0
1 29 1407 1408 0
1 29 1407 -1408 0
1 29 -1407 1408 0
1 29 -1407 -1408 0
-5 9 -41 52 0
-1 24 -39 1409 0
-39 -44 -1409 1410 0
-44 -48 -1410 1411 0
-48 61 -1411 1412 0
61 66 -1412 1413 0
66 -79 83 -1413 0
